(set-info :smt-lib-version 2.6)
(set-logic QF_ALIA)
(set-info :notes "Adapted for Array Sum evaluation.
Base file: qlock.induction.16.smt2")
(set-info :source |
Unbounded version of the queue lock algorithm.
|)
(set-info :category "industrial")
(declare-fun x_0 () (Array Int Int))
(declare-fun x_1 () Int)
(declare-fun x_2 () Int)
(declare-fun x_3 () (Array Int Int))
(declare-fun x_4 () (Array Int Int))
(declare-fun x_5 () (Array Int Int))
(declare-fun x_6 () (Array Int Int))
(declare-fun x_7 () (Array Int Int))
(declare-fun x_8 () (Array Int Int))
(declare-fun x_9 () (Array Int Int))
(declare-fun x_10 () (Array Int Int))
(declare-fun x_11 () (Array Int Int))
(declare-fun x_12 () (Array Int Int))
(declare-fun x_13 () (Array Int Int))
(declare-fun x_14 () (Array Int Int))
(declare-fun x_15 () (Array Int Int))
(declare-fun x_16 () (Array Int Int))
(declare-fun x_17 () (Array Int Int))
(declare-fun x_18 () (Array Int Int))
(declare-fun x_19 () Int)
(declare-fun x_20 () Int)
(declare-fun x_21 () (Array Int Int))
(declare-fun x_22 () Int)
(declare-fun x_23 () Bool)
(declare-fun x_24 () Bool)
(declare-fun x_25 () Int)
(declare-fun x_26 () Int)
(declare-fun x_27 () Int)
(declare-fun x_28 () Int)
(declare-fun x_29 () Int)
(declare-fun x_30 () Int)
(declare-fun x_31 () Int)
(declare-fun x_32 () Int)
(declare-fun x_33 () Int)
(declare-fun x_34 () Int)
(declare-fun x_35 () Int)
(declare-fun x_36 () Int)
(declare-fun x_37 () (Array Int Int))
(declare-fun x_38 () Int)
(declare-fun x_39 () Bool)
(declare-fun x_40 () Int)
(declare-fun x_41 () Int)
(declare-fun x_42 () Int)
(declare-fun x_43 () Int)
(declare-fun x_44 () Int)
(declare-fun x_45 () Int)
(declare-fun x_46 () Int)
(declare-fun x_47 () Int)
(declare-fun x_48 () Int)
(declare-fun x_49 () Int)
(declare-fun x_50 () (Array Int Int))
(declare-fun x_51 () Int)
(declare-fun x_52 () Bool)
(declare-fun x_53 () Int)
(declare-fun x_54 () Int)
(declare-fun x_55 () Int)
(declare-fun x_56 () Int)
(declare-fun x_57 () Int)
(declare-fun x_58 () Int)
(declare-fun x_59 () Int)
(declare-fun x_60 () Int)
(declare-fun x_61 () Int)
(declare-fun x_62 () Int)
(declare-fun x_63 () (Array Int Int))
(declare-fun x_64 () Int)
(declare-fun x_65 () Bool)
(declare-fun x_66 () Int)
(declare-fun x_67 () Int)
(declare-fun x_68 () Int)
(declare-fun x_69 () Int)
(declare-fun x_70 () Int)
(declare-fun x_71 () Int)
(declare-fun x_72 () Int)
(declare-fun x_73 () Int)
(declare-fun x_74 () Int)
(declare-fun x_75 () Int)
(declare-fun x_76 () (Array Int Int))
(declare-fun x_77 () Int)
(declare-fun x_78 () Bool)
(declare-fun x_79 () Int)
(declare-fun x_80 () Int)
(declare-fun x_81 () Int)
(declare-fun x_82 () Int)
(declare-fun x_83 () Int)
(declare-fun x_84 () Int)
(declare-fun x_85 () Int)
(declare-fun x_86 () Int)
(declare-fun x_87 () Int)
(declare-fun x_88 () Int)
(declare-fun x_89 () (Array Int Int))
(declare-fun x_90 () Int)
(declare-fun x_91 () Bool)
(declare-fun x_92 () Int)
(declare-fun x_93 () Int)
(declare-fun x_94 () Int)
(declare-fun x_95 () Int)
(declare-fun x_96 () Int)
(declare-fun x_97 () Int)
(declare-fun x_98 () Int)
(declare-fun x_99 () Int)
(declare-fun x_100 () Int)
(declare-fun x_101 () Int)
(declare-fun x_102 () (Array Int Int))
(declare-fun x_103 () Int)
(declare-fun x_104 () Bool)
(declare-fun x_105 () Int)
(declare-fun x_106 () Int)
(declare-fun x_107 () Int)
(declare-fun x_108 () Int)
(declare-fun x_109 () Int)
(declare-fun x_110 () Int)
(declare-fun x_111 () Int)
(declare-fun x_112 () Int)
(declare-fun x_113 () Int)
(declare-fun x_114 () Int)
(declare-fun x_115 () (Array Int Int))
(declare-fun x_116 () Int)
(declare-fun x_117 () Bool)
(declare-fun x_118 () Int)
(declare-fun x_119 () Int)
(declare-fun x_120 () Int)
(declare-fun x_121 () Int)
(declare-fun x_122 () Int)
(declare-fun x_123 () Int)
(declare-fun x_124 () Int)
(declare-fun x_125 () Int)
(declare-fun x_126 () Int)
(declare-fun x_127 () Int)
(declare-fun x_128 () (Array Int Int))
(declare-fun x_129 () Int)
(declare-fun x_130 () Bool)
(declare-fun x_131 () Int)
(declare-fun x_132 () Int)
(declare-fun x_133 () Int)
(declare-fun x_134 () Int)
(declare-fun x_135 () Int)
(declare-fun x_136 () Int)
(declare-fun x_137 () Int)
(declare-fun x_138 () Int)
(declare-fun x_139 () Int)
(declare-fun x_140 () Int)
(declare-fun x_141 () (Array Int Int))
(declare-fun x_142 () Int)
(declare-fun x_143 () Bool)
(declare-fun x_144 () Int)
(declare-fun x_145 () Int)
(declare-fun x_146 () Int)
(declare-fun x_147 () Int)
(declare-fun x_148 () Int)
(declare-fun x_149 () Int)
(declare-fun x_150 () Int)
(declare-fun x_151 () Int)
(declare-fun x_152 () Int)
(declare-fun x_153 () Int)
(declare-fun x_154 () (Array Int Int))
(declare-fun x_155 () Int)
(declare-fun x_156 () Bool)
(declare-fun x_157 () Int)
(declare-fun x_158 () Int)
(declare-fun x_159 () Int)
(declare-fun x_160 () Int)
(declare-fun x_161 () Int)
(declare-fun x_162 () Int)
(declare-fun x_163 () Int)
(declare-fun x_164 () Int)
(declare-fun x_165 () Int)
(declare-fun x_166 () Int)
(declare-fun x_167 () (Array Int Int))
(declare-fun x_168 () Int)
(declare-fun x_169 () Bool)
(declare-fun x_170 () Int)
(declare-fun x_171 () Int)
(declare-fun x_172 () Int)
(declare-fun x_173 () Int)
(declare-fun x_174 () Int)
(declare-fun x_175 () Int)
(declare-fun x_176 () Int)
(declare-fun x_177 () Int)
(declare-fun x_178 () Int)
(declare-fun x_179 () Int)
(declare-fun x_180 () (Array Int Int))
(declare-fun x_181 () Int)
(declare-fun x_182 () Bool)
(declare-fun x_183 () Int)
(declare-fun x_184 () Int)
(declare-fun x_185 () Int)
(declare-fun x_186 () Int)
(declare-fun x_187 () Int)
(declare-fun x_188 () Int)
(declare-fun x_189 () Int)
(declare-fun x_190 () Int)
(declare-fun x_191 () Int)
(declare-fun x_192 () Int)
(declare-fun x_193 () (Array Int Int))
(declare-fun x_194 () Int)
(declare-fun x_195 () Bool)
(declare-fun x_196 () Int)
(declare-fun x_197 () Int)
(declare-fun x_198 () Int)
(declare-fun x_199 () Int)
(declare-fun x_200 () Int)
(declare-fun x_201 () Int)
(declare-fun x_202 () Int)
(declare-fun x_203 () Int)
(declare-fun x_204 () Int)
(declare-fun x_205 () Int)
(declare-fun x_206 () (Array Int Int))
(declare-fun x_207 () Int)
(declare-fun x_208 () Bool)
(declare-fun x_209 () Int)
(declare-fun x_210 () Int)
(declare-fun x_211 () Int)
(declare-fun x_212 () Int)
(declare-fun x_213 () Int)
(declare-fun x_214 () Int)
(declare-fun x_215 () Int)
(declare-fun x_216 () Int)
(declare-fun x_217 () Int)
(declare-fun x_218 () Int)
(declare-fun x_219 () (Array Int Int))
(declare-fun x_220 () Int)
(declare-fun x_221 () Bool)
(declare-fun x_222 () Int)
(declare-fun x_223 () Int)
(declare-fun x_224 () Int)
(declare-fun x_225 () Int)
(declare-fun x_226 () Int)
(declare-fun x_227 () (Array Int Int))
(declare-fun x_228 () Int)
(declare-fun x_229 () Int)
(declare-fun x_230 () Int)
(declare-fun x_231 () Int)
(declare-fun x_232 () Int)
(declare-fun x_233 () Int)
(declare-fun x_234 () Int)
(declare-fun x_235 () Int)
(declare-fun x_236 () Int)
(declare-fun x_237 () Int)
(declare-fun x_238 () Int)
(declare-fun x_239 () Int)
(declare-fun x_240 () Int)
(declare-fun x_241 () Int)
(declare-fun x_242 () Int)
(declare-fun x_243 () Int)
(declare-fun x_244 () Int)
(declare-fun x_245 () Int)
(declare-fun x_246 () Int)
(declare-fun x_247 () Int)
(declare-fun x_248 () Int)
(declare-fun x_249 () Int)
(declare-fun x_250 () Int)
(declare-fun x_251 () Int)
(declare-fun x_252 () Int)
(declare-fun x_253 () Int)
(declare-fun x_254 () Int)
(declare-fun x_255 () Int)
(declare-fun x_256 () Int)
(declare-fun x_257 () Int)
(declare-fun x_258 () Int)
(declare-fun x_259 () Int)
(declare-fun x_260 () Int)
(declare-fun x_261 () Int)
(declare-fun x_262 () Int)
(declare-fun x_263 () Int)
(declare-fun x_264 () Int)
(declare-fun x_265 () Int)
(declare-fun x_266 () Int)
(declare-fun x_267 () Int)
(declare-fun x_268 () Int)
(declare-fun x_269 () Int)
(declare-fun x_270 () Int)
(declare-fun x_271 () Int)
(declare-fun x_272 () Int)
(declare-fun x_273 () Int)
(declare-fun x_274 () Int)
(declare-fun x_275 () Int)
(declare-fun x_276 () Int)
(declare-fun x_277 () Int)
(declare-fun x_278 () Int)
(declare-fun x_279 () Int)
(declare-fun x_280 () Int)
(declare-fun x_281 () Int)
(declare-fun x_282 () Int)
(declare-fun x_283 () Int)
(declare-fun x_284 () Int)
(declare-fun x_285 () Int)
(declare-fun x_286 () Int)
(declare-fun x_287 () Int)
(declare-fun x_288 () Int)
(declare-fun x_289 () Int)
(declare-fun x_290 () Int)
(declare-fun x_291 () Int)
(declare-fun x_292 () Int)
(declare-fun x_293 () Int)
(declare-fun x_294 () Int)
(declare-fun x_295 () Int)
(declare-fun x_296 () Int)
(declare-fun x_297 () Int)
(declare-fun x_298 () Int)
(declare-fun x_299 () Int)
(declare-fun x_300 () Int)
(declare-fun x_301 () Int)
(declare-fun x_302 () Int)
(declare-fun x_303 () Int)
(declare-fun x_304 () Int)
(declare-fun x_305 () Int)
(declare-fun x_306 () Int)
(declare-fun x_307 () Int)
(declare-fun x_308 () Int)
(declare-fun x_309 () Int)
(declare-fun x_310 () Int)
(declare-fun x_311 () Int)
(declare-fun x_312 () Int)
(declare-fun x_313 () Int)
(declare-fun x_314 () Int)
(declare-fun x_315 () Int)
(declare-fun x_316 () Int)
(declare-fun x_317 () Int)
(declare-fun x_318 () Int)
(declare-fun x_319 () Int)
(declare-fun x_320 () Int)
(declare-fun x_321 () Int)
(declare-fun x_322 () Int)
(declare-fun x_323 () Int)
(declare-fun x_324 () Int)
(declare-fun x_325 () Int)
(declare-fun x_326 () Int)
(declare-fun x_327 () Int)
(declare-fun x_328 () Int)
(declare-fun x_329 () Int)
(assert (let ((?v_78 (= x_21 x_18)) (?v_75 (= x_22 x_19)) (?v_76 (= x_23 x_24)) (?v_79 (= x_25 x_26)) (?v_77 (not (<= x_26 x_19))) (?v_73 (= x_37 x_21)) (?v_70 (= x_38 x_22)) (?v_71 (= x_39 x_23)) (?v_74 (= x_40 x_25)) (?v_72 (not (<= x_25 x_22))) (?v_68 (= x_50 x_37)) (?v_65 (= x_51 x_38)) (?v_66 (= x_52 x_39)) (?v_69 (= x_53 x_40)) (?v_67 (not (<= x_40 x_38))) (?v_63 (= x_63 x_50)) (?v_60 (= x_64 x_51)) (?v_61 (= x_65 x_52)) (?v_64 (= x_66 x_53)) (?v_62 (not (<= x_53 x_51))) (?v_58 (= x_76 x_63)) (?v_55 (= x_77 x_64)) (?v_56 (= x_78 x_65)) (?v_59 (= x_79 x_66)) (?v_57 (not (<= x_66 x_64))) (?v_53 (= x_89 x_76)) (?v_50 (= x_90 x_77)) (?v_51 (= x_91 x_78)) (?v_54 (= x_92 x_79)) (?v_52 (not (<= x_79 x_77))) (?v_48 (= x_102 x_89)) (?v_45 (= x_103 x_90)) (?v_46 (= x_104 x_91)) (?v_49 (= x_105 x_92)) (?v_47 (not (<= x_92 x_90))) (?v_43 (= x_115 x_102)) (?v_40 (= x_116 x_103)) (?v_41 (= x_117 x_104)) (?v_44 (= x_118 x_105)) (?v_42 (not (<= x_105 x_103))) (?v_38 (= x_128 x_115)) (?v_35 (= x_129 x_116)) (?v_36 (= x_130 x_117)) (?v_39 (= x_131 x_118)) (?v_37 (not (<= x_118 x_116))) (?v_33 (= x_141 x_128)) (?v_30 (= x_142 x_129)) (?v_31 (= x_143 x_130)) (?v_34 (= x_144 x_131)) (?v_32 (not (<= x_131 x_129))) (?v_28 (= x_154 x_141)) (?v_25 (= x_155 x_142)) (?v_26 (= x_156 x_143)) (?v_29 (= x_157 x_144)) (?v_27 (not (<= x_144 x_142))) (?v_23 (= x_167 x_154)) (?v_20 (= x_168 x_155)) (?v_21 (= x_169 x_156)) (?v_24 (= x_170 x_157)) (?v_22 (not (<= x_157 x_155))) (?v_18 (= x_180 x_167)) (?v_15 (= x_181 x_168)) (?v_16 (= x_182 x_169)) (?v_19 (= x_183 x_170)) (?v_17 (not (<= x_170 x_168))) (?v_13 (= x_193 x_180)) (?v_10 (= x_194 x_181)) (?v_11 (= x_195 x_182)) (?v_14 (= x_196 x_183)) (?v_12 (not (<= x_183 x_181))) (?v_8 (= x_206 x_193)) (?v_5 (= x_207 x_194)) (?v_6 (= x_208 x_195)) (?v_9 (= x_209 x_196)) (?v_7 (not (<= x_196 x_194))) (?v_3 (= x_219 x_206)) (?v_0 (= x_220 x_207)) (?v_1 (= x_221 x_208)) (?v_4 (= x_222 x_209)) (?v_2 (not (<= x_209 x_207)))) (and (and (and (and (and (and (and (and (and (and (and (and (and (and (and (and (and (and (and (and (and (and (and (and (and (and (and (and (and (and (and (and (and (and (and (and (and (and (and (and (and (and (and (and (and (and (and (and (and (and (and (and (and (and (and (and (and (and (and (and (and (and (and (and (and (and (and (and (and (and (and (and (and (and (and (and (and (and (and (and (and (and (and (and (and (and (and (and (and (and (and (and (and (and (and (and (and (and (and (and (and (and (and (and (and (and (and (and (and (and (and (and (and (and (and (and (and (and (and (and (and (and (and (and (and (and (and (and (and (and (and (and (and (and (and (and (and (and (and (and (and (and (and (and (and (and (and (and (and (and (and (and (and (and (and (and (and (and (and (and (and (and (and (and (not (= x_2 x_1)) (= x_232 (select x_17 x_1))) (= x_233 (select x_17 x_2))) (or (not (= x_232 3)) (not (= x_233 3)))) (= x_234 (select x_16 x_1))) (= x_235 (select x_16 x_2))) (or (not (= x_234 3)) (not (= x_235 3)))) (= x_236 (select x_15 x_1))) (= x_237 (select x_15 x_2))) (or (not (= x_236 3)) (not (= x_237 3)))) (= x_238 (select x_14 x_1))) (= x_239 (select x_14 x_2))) (or (not (= x_238 3)) (not (= x_239 3)))) (= x_240 (select x_13 x_1))) (= x_241 (select x_13 x_2))) (or (not (= x_240 3)) (not (= x_241 3)))) (= x_242 (select x_12 x_1))) (= x_243 (select x_12 x_2))) (or (not (= x_242 3)) (not (= x_243 3)))) (= x_244 (select x_11 x_1))) (= x_245 (select x_11 x_2))) (or (not (= x_244 3)) (not (= x_245 3)))) (= x_246 (select x_10 x_1))) (= x_247 (select x_10 x_2))) (or (not (= x_246 3)) (not (= x_247 3)))) (= x_248 (select x_9 x_1))) (= x_249 (select x_9 x_2))) (or (not (= x_248 3)) (not (= x_249 3)))) (= x_250 (select x_8 x_1))) (= x_251 (select x_8 x_2))) (or (not (= x_250 3)) (not (= x_251 3)))) (= x_252 (select x_7 x_1))) (= x_253 (select x_7 x_2))) (or (not (= x_252 3)) (not (= x_253 3)))) (= x_254 (select x_6 x_1))) (= x_255 (select x_6 x_2))) (or (not (= x_254 3)) (not (= x_255 3)))) (= x_256 (select x_5 x_1))) (= x_257 (select x_5 x_2))) (or (not (= x_256 3)) (not (= x_257 3)))) (= x_258 (select x_4 x_1))) (= x_259 (select x_4 x_2))) (or (not (= x_258 3)) (not (= x_259 3)))) (= x_260 (select x_3 x_1))) (= x_261 (select x_3 x_2))) (or (not (= x_260 3)) (not (= x_261 3)))) (= x_262 (select x_0 x_1))) (= x_263 (select x_0 x_2))) (or (not (= x_262 3)) (not (= x_263 3)))) (= x_264 (select x_18 x_19))) (= x_20 x_264)) (= x_265 (select x_21 x_22))) (= x_36 x_265)) (= x_266 (select x_37 x_38))) (= x_49 x_266)) (= x_267 (select x_50 x_51))) (= x_62 x_267)) (= x_268 (select x_63 x_64))) (= x_75 x_268)) (= x_269 (select x_76 x_77))) (= x_88 x_269)) (= x_270 (select x_89 x_90))) (= x_101 x_270)) (= x_271 (select x_102 x_103))) (= x_114 x_271)) (= x_272 (select x_115 x_116))) (= x_127 x_272)) (= x_273 (select x_128 x_129))) (= x_140 x_273)) (= x_274 (select x_141 x_142))) (= x_153 x_274)) (= x_275 (select x_154 x_155))) (= x_166 x_275)) (= x_276 (select x_167 x_168))) (= x_179 x_276)) (= x_277 (select x_180 x_181))) (= x_192 x_277)) (= x_278 (select x_193 x_194))) (= x_205 x_278)) (= x_279 (select x_206 x_207))) (= x_218 x_279)) (= x_223 (+ x_210 1))) (= x_280 (select x_17 x_225))) (= x_281 (select x_17 x_228))) (= x_282 (select x_17 x_230))) (or (or (or (and (and (and (and (and (and (and (= x_224 0) (= x_222 (+ x_209 1))) ?v_0) ?v_1) (= x_226 x_225)) (= x_280 1)) (= x_227 (store x_17 x_225 2))) (= x_219 (store x_206 x_209 x_225))) (and (and (and (and (and (and (and (and (and (= x_224 1) ?v_2) ?v_0) ?v_1) ?v_3) ?v_4) (= x_229 x_228)) (= x_281 2)) (= x_218 x_228)) (= x_227 (store x_17 x_228 3)))) (and (and (and (and (and (and (and (and (and (= x_224 2) ?v_2) (= x_220 (+ x_207 1))) ?v_1) ?v_3) ?v_4) (= x_231 x_230)) (= x_282 3)) (or (not (<= x_210 12)) (= x_218 x_230))) (= x_227 (store x_17 x_230 1)))) (and (and (and (and (and (= x_224 3) ?v_3) ?v_0) ?v_1) (= x_227 x_17)) ?v_4))) (= x_210 (+ x_197 1))) (= x_283 (select x_16 x_212))) (= x_284 (select x_16 x_214))) (= x_285 (select x_16 x_216))) (or (or (or (and (and (and (and (and (and (and (= x_211 0) (= x_209 (+ x_196 1))) ?v_5) ?v_6) (= x_213 x_212)) (= x_283 1)) (= x_17 (store x_16 x_212 2))) (= x_206 (store x_193 x_196 x_212))) (and (and (and (and (and (and (and (and (and (= x_211 1) ?v_7) ?v_5) ?v_6) ?v_8) ?v_9) (= x_215 x_214)) (= x_284 2)) (= x_205 x_214)) (= x_17 (store x_16 x_214 3)))) (and (and (and (and (and (and (and (and (and (= x_211 2) ?v_7) (= x_207 (+ x_194 1))) ?v_6) ?v_8) ?v_9) (= x_217 x_216)) (= x_285 3)) (or (not (<= x_197 12)) (= x_205 x_216))) (= x_17 (store x_16 x_216 1)))) (and (and (and (and (and (= x_211 3) ?v_8) ?v_5) ?v_6) (= x_17 x_16)) ?v_9))) (= x_197 (+ x_184 1))) (= x_286 (select x_15 x_199))) (= x_287 (select x_15 x_201))) (= x_288 (select x_15 x_203))) (or (or (or (and (and (and (and (and (and (and (= x_198 0) (= x_196 (+ x_183 1))) ?v_10) ?v_11) (= x_200 x_199)) (= x_286 1)) (= x_16 (store x_15 x_199 2))) (= x_193 (store x_180 x_183 x_199))) (and (and (and (and (and (and (and (and (and (= x_198 1) ?v_12) ?v_10) ?v_11) ?v_13) ?v_14) (= x_202 x_201)) (= x_287 2)) (= x_192 x_201)) (= x_16 (store x_15 x_201 3)))) (and (and (and (and (and (and (and (and (and (= x_198 2) ?v_12) (= x_194 (+ x_181 1))) ?v_11) ?v_13) ?v_14) (= x_204 x_203)) (= x_288 3)) (or (not (<= x_184 12)) (= x_192 x_203))) (= x_16 (store x_15 x_203 1)))) (and (and (and (and (and (= x_198 3) ?v_13) ?v_10) ?v_11) (= x_16 x_15)) ?v_14))) (= x_184 (+ x_171 1))) (= x_289 (select x_14 x_186))) (= x_290 (select x_14 x_188))) (= x_291 (select x_14 x_190))) (or (or (or (and (and (and (and (and (and (and (= x_185 0) (= x_183 (+ x_170 1))) ?v_15) ?v_16) (= x_187 x_186)) (= x_289 1)) (= x_15 (store x_14 x_186 2))) (= x_180 (store x_167 x_170 x_186))) (and (and (and (and (and (and (and (and (and (= x_185 1) ?v_17) ?v_15) ?v_16) ?v_18) ?v_19) (= x_189 x_188)) (= x_290 2)) (= x_179 x_188)) (= x_15 (store x_14 x_188 3)))) (and (and (and (and (and (and (and (and (and (= x_185 2) ?v_17) (= x_181 (+ x_168 1))) ?v_16) ?v_18) ?v_19) (= x_191 x_190)) (= x_291 3)) (or (not (<= x_171 12)) (= x_179 x_190))) (= x_15 (store x_14 x_190 1)))) (and (and (and (and (and (= x_185 3) ?v_18) ?v_15) ?v_16) (= x_15 x_14)) ?v_19))) (= x_171 (+ x_158 1))) (= x_292 (select x_13 x_173))) (= x_293 (select x_13 x_175))) (= x_294 (select x_13 x_177))) (or (or (or (and (and (and (and (and (and (and (= x_172 0) (= x_170 (+ x_157 1))) ?v_20) ?v_21) (= x_174 x_173)) (= x_292 1)) (= x_14 (store x_13 x_173 2))) (= x_167 (store x_154 x_157 x_173))) (and (and (and (and (and (and (and (and (and (= x_172 1) ?v_22) ?v_20) ?v_21) ?v_23) ?v_24) (= x_176 x_175)) (= x_293 2)) (= x_166 x_175)) (= x_14 (store x_13 x_175 3)))) (and (and (and (and (and (and (and (and (and (= x_172 2) ?v_22) (= x_168 (+ x_155 1))) ?v_21) ?v_23) ?v_24) (= x_178 x_177)) (= x_294 3)) (or (not (<= x_158 12)) (= x_166 x_177))) (= x_14 (store x_13 x_177 1)))) (and (and (and (and (and (= x_172 3) ?v_23) ?v_20) ?v_21) (= x_14 x_13)) ?v_24))) (= x_158 (+ x_145 1))) (= x_295 (select x_12 x_160))) (= x_296 (select x_12 x_162))) (= x_297 (select x_12 x_164))) (or (or (or (and (and (and (and (and (and (and (= x_159 0) (= x_157 (+ x_144 1))) ?v_25) ?v_26) (= x_161 x_160)) (= x_295 1)) (= x_13 (store x_12 x_160 2))) (= x_154 (store x_141 x_144 x_160))) (and (and (and (and (and (and (and (and (and (= x_159 1) ?v_27) ?v_25) ?v_26) ?v_28) ?v_29) (= x_163 x_162)) (= x_296 2)) (= x_153 x_162)) (= x_13 (store x_12 x_162 3)))) (and (and (and (and (and (and (and (and (and (= x_159 2) ?v_27) (= x_155 (+ x_142 1))) ?v_26) ?v_28) ?v_29) (= x_165 x_164)) (= x_297 3)) (or (not (<= x_145 12)) (= x_153 x_164))) (= x_13 (store x_12 x_164 1)))) (and (and (and (and (and (= x_159 3) ?v_28) ?v_25) ?v_26) (= x_13 x_12)) ?v_29))) (= x_145 (+ x_132 1))) (= x_298 (select x_11 x_147))) (= x_299 (select x_11 x_149))) (= x_300 (select x_11 x_151))) (or (or (or (and (and (and (and (and (and (and (= x_146 0) (= x_144 (+ x_131 1))) ?v_30) ?v_31) (= x_148 x_147)) (= x_298 1)) (= x_12 (store x_11 x_147 2))) (= x_141 (store x_128 x_131 x_147))) (and (and (and (and (and (and (and (and (and (= x_146 1) ?v_32) ?v_30) ?v_31) ?v_33) ?v_34) (= x_150 x_149)) (= x_299 2)) (= x_140 x_149)) (= x_12 (store x_11 x_149 3)))) (and (and (and (and (and (and (and (and (and (= x_146 2) ?v_32) (= x_142 (+ x_129 1))) ?v_31) ?v_33) ?v_34) (= x_152 x_151)) (= x_300 3)) (or (not (<= x_132 12)) (= x_140 x_151))) (= x_12 (store x_11 x_151 1)))) (and (and (and (and (and (= x_146 3) ?v_33) ?v_30) ?v_31) (= x_12 x_11)) ?v_34))) (= x_132 (+ x_119 1))) (= x_301 (select x_10 x_134))) (= x_302 (select x_10 x_136))) (= x_303 (select x_10 x_138))) (or (or (or (and (and (and (and (and (and (and (= x_133 0) (= x_131 (+ x_118 1))) ?v_35) ?v_36) (= x_135 x_134)) (= x_301 1)) (= x_11 (store x_10 x_134 2))) (= x_128 (store x_115 x_118 x_134))) (and (and (and (and (and (and (and (and (and (= x_133 1) ?v_37) ?v_35) ?v_36) ?v_38) ?v_39) (= x_137 x_136)) (= x_302 2)) (= x_127 x_136)) (= x_11 (store x_10 x_136 3)))) (and (and (and (and (and (and (and (and (and (= x_133 2) ?v_37) (= x_129 (+ x_116 1))) ?v_36) ?v_38) ?v_39) (= x_139 x_138)) (= x_303 3)) (or (not (<= x_119 12)) (= x_127 x_138))) (= x_11 (store x_10 x_138 1)))) (and (and (and (and (and (= x_133 3) ?v_38) ?v_35) ?v_36) (= x_11 x_10)) ?v_39))) (= x_119 (+ x_106 1))) (= x_304 (select x_9 x_121))) (= x_305 (select x_9 x_123))) (= x_306 (select x_9 x_125))) (or (or (or (and (and (and (and (and (and (and (= x_120 0) (= x_118 (+ x_105 1))) ?v_40) ?v_41) (= x_122 x_121)) (= x_304 1)) (= x_10 (store x_9 x_121 2))) (= x_115 (store x_102 x_105 x_121))) (and (and (and (and (and (and (and (and (and (= x_120 1) ?v_42) ?v_40) ?v_41) ?v_43) ?v_44) (= x_124 x_123)) (= x_305 2)) (= x_114 x_123)) (= x_10 (store x_9 x_123 3)))) (and (and (and (and (and (and (and (and (and (= x_120 2) ?v_42) (= x_116 (+ x_103 1))) ?v_41) ?v_43) ?v_44) (= x_126 x_125)) (= x_306 3)) (or (not (<= x_106 12)) (= x_114 x_125))) (= x_10 (store x_9 x_125 1)))) (and (and (and (and (and (= x_120 3) ?v_43) ?v_40) ?v_41) (= x_10 x_9)) ?v_44))) (= x_106 (+ x_93 1))) (= x_307 (select x_8 x_108))) (= x_308 (select x_8 x_110))) (= x_309 (select x_8 x_112))) (or (or (or (and (and (and (and (and (and (and (= x_107 0) (= x_105 (+ x_92 1))) ?v_45) ?v_46) (= x_109 x_108)) (= x_307 1)) (= x_9 (store x_8 x_108 2))) (= x_102 (store x_89 x_92 x_108))) (and (and (and (and (and (and (and (and (and (= x_107 1) ?v_47) ?v_45) ?v_46) ?v_48) ?v_49) (= x_111 x_110)) (= x_308 2)) (= x_101 x_110)) (= x_9 (store x_8 x_110 3)))) (and (and (and (and (and (and (and (and (and (= x_107 2) ?v_47) (= x_103 (+ x_90 1))) ?v_46) ?v_48) ?v_49) (= x_113 x_112)) (= x_309 3)) (or (not (<= x_93 12)) (= x_101 x_112))) (= x_9 (store x_8 x_112 1)))) (and (and (and (and (and (= x_107 3) ?v_48) ?v_45) ?v_46) (= x_9 x_8)) ?v_49))) (= x_93 (+ x_80 1))) (= x_310 (select x_7 x_95))) (= x_311 (select x_7 x_97))) (= x_312 (select x_7 x_99))) (or (or (or (and (and (and (and (and (and (and (= x_94 0) (= x_92 (+ x_79 1))) ?v_50) ?v_51) (= x_96 x_95)) (= x_310 1)) (= x_8 (store x_7 x_95 2))) (= x_89 (store x_76 x_79 x_95))) (and (and (and (and (and (and (and (and (and (= x_94 1) ?v_52) ?v_50) ?v_51) ?v_53) ?v_54) (= x_98 x_97)) (= x_311 2)) (= x_88 x_97)) (= x_8 (store x_7 x_97 3)))) (and (and (and (and (and (and (and (and (and (= x_94 2) ?v_52) (= x_90 (+ x_77 1))) ?v_51) ?v_53) ?v_54) (= x_100 x_99)) (= x_312 3)) (or (not (<= x_80 12)) (= x_88 x_99))) (= x_8 (store x_7 x_99 1)))) (and (and (and (and (and (= x_94 3) ?v_53) ?v_50) ?v_51) (= x_8 x_7)) ?v_54))) (= x_80 (+ x_67 1))) (= x_313 (select x_6 x_82))) (= x_314 (select x_6 x_84))) (= x_315 (select x_6 x_86))) (or (or (or (and (and (and (and (and (and (and (= x_81 0) (= x_79 (+ x_66 1))) ?v_55) ?v_56) (= x_83 x_82)) (= x_313 1)) (= x_7 (store x_6 x_82 2))) (= x_76 (store x_63 x_66 x_82))) (and (and (and (and (and (and (and (and (and (= x_81 1) ?v_57) ?v_55) ?v_56) ?v_58) ?v_59) (= x_85 x_84)) (= x_314 2)) (= x_75 x_84)) (= x_7 (store x_6 x_84 3)))) (and (and (and (and (and (and (and (and (and (= x_81 2) ?v_57) (= x_77 (+ x_64 1))) ?v_56) ?v_58) ?v_59) (= x_87 x_86)) (= x_315 3)) (or (not (<= x_67 12)) (= x_75 x_86))) (= x_7 (store x_6 x_86 1)))) (and (and (and (and (and (= x_81 3) ?v_58) ?v_55) ?v_56) (= x_7 x_6)) ?v_59))) (= x_67 (+ x_54 1))) (= x_316 (select x_5 x_69))) (= x_317 (select x_5 x_71))) (= x_318 (select x_5 x_73))) (or (or (or (and (and (and (and (and (and (and (= x_68 0) (= x_66 (+ x_53 1))) ?v_60) ?v_61) (= x_70 x_69)) (= x_316 1)) (= x_6 (store x_5 x_69 2))) (= x_63 (store x_50 x_53 x_69))) (and (and (and (and (and (and (and (and (and (= x_68 1) ?v_62) ?v_60) ?v_61) ?v_63) ?v_64) (= x_72 x_71)) (= x_317 2)) (= x_62 x_71)) (= x_6 (store x_5 x_71 3)))) (and (and (and (and (and (and (and (and (and (= x_68 2) ?v_62) (= x_64 (+ x_51 1))) ?v_61) ?v_63) ?v_64) (= x_74 x_73)) (= x_318 3)) (or (not (<= x_54 12)) (= x_62 x_73))) (= x_6 (store x_5 x_73 1)))) (and (and (and (and (and (= x_68 3) ?v_63) ?v_60) ?v_61) (= x_6 x_5)) ?v_64))) (= x_54 (+ x_41 1))) (= x_319 (select x_4 x_56))) (= x_320 (select x_4 x_58))) (= x_321 (select x_4 x_60))) (or (or (or (and (and (and (and (and (and (and (= x_55 0) (= x_53 (+ x_40 1))) ?v_65) ?v_66) (= x_57 x_56)) (= x_319 1)) (= x_5 (store x_4 x_56 2))) (= x_50 (store x_37 x_40 x_56))) (and (and (and (and (and (and (and (and (and (= x_55 1) ?v_67) ?v_65) ?v_66) ?v_68) ?v_69) (= x_59 x_58)) (= x_320 2)) (= x_49 x_58)) (= x_5 (store x_4 x_58 3)))) (and (and (and (and (and (and (and (and (and (= x_55 2) ?v_67) (= x_51 (+ x_38 1))) ?v_66) ?v_68) ?v_69) (= x_61 x_60)) (= x_321 3)) (or (not (<= x_41 12)) (= x_49 x_60))) (= x_5 (store x_4 x_60 1)))) (and (and (and (and (and (= x_55 3) ?v_68) ?v_65) ?v_66) (= x_5 x_4)) ?v_69))) (= x_41 (+ x_27 1))) (= x_322 (select x_3 x_43))) (= x_323 (select x_3 x_45))) (= x_324 (select x_3 x_47))) (or (or (or (and (and (and (and (and (and (and (= x_42 0) (= x_40 (+ x_25 1))) ?v_70) ?v_71) (= x_44 x_43)) (= x_322 1)) (= x_4 (store x_3 x_43 2))) (= x_37 (store x_21 x_25 x_43))) (and (and (and (and (and (and (and (and (and (= x_42 1) ?v_72) ?v_70) ?v_71) ?v_73) ?v_74) (= x_46 x_45)) (= x_323 2)) (= x_36 x_45)) (= x_4 (store x_3 x_45 3)))) (and (and (and (and (and (and (and (and (and (= x_42 2) ?v_72) (= x_38 (+ x_22 1))) ?v_71) ?v_73) ?v_74) (= x_48 x_47)) (= x_324 3)) (or (not (<= x_27 12)) (= x_36 x_47))) (= x_4 (store x_3 x_47 1)))) (and (and (and (and (and (= x_42 3) ?v_73) ?v_70) ?v_71) (= x_4 x_3)) ?v_74))) (= x_27 (+ x_28 1))) (= x_325 (select x_0 x_30))) (= x_326 (select x_0 x_32))) (= x_327 (select x_0 x_34))) (or (or (or (and (and (and (and (and (and (and (= x_29 0) (= x_25 (+ x_26 1))) ?v_75) ?v_76) (= x_31 x_30)) (= x_325 1)) (= x_3 (store x_0 x_30 2))) (= x_21 (store x_18 x_26 x_30))) (and (and (and (and (and (and (and (and (and (= x_29 1) ?v_77) ?v_75) ?v_76) ?v_78) ?v_79) (= x_33 x_32)) (= x_326 2)) (= x_20 x_32)) (= x_3 (store x_0 x_32 3)))) (and (and (and (and (and (and (and (and (and (= x_29 2) ?v_77) (= x_22 (+ x_19 1))) ?v_76) ?v_78) ?v_79) (= x_35 x_34)) (= x_327 3)) (or (not (<= x_28 12)) (= x_20 x_34))) (= x_3 (store x_0 x_34 1)))) (and (and (and (and (and (= x_29 3) ?v_78) ?v_75) ?v_76) (= x_3 x_0)) ?v_79))) (= x_328 (select x_227 x_1))) (= x_328 3)) (= x_329 (select x_227 x_2))) (= x_329 3))))
; --- Injected Array Sum Constraint ---
(assert (sum x_141 (+ x_161 (+ x_244 x_22))))
(assert (sum x_167 (+ x_177 (+ x_188 x_267))))
(assert (sum x_37 (+ x_173 (+ x_99 x_302))))
(check-sat)
(exit)